
Gurobi 13.0.1 (linux64) logging started Fri Mar 27 09:58:53 2026

Set parameter LogFile to value "logs_sparse/100B_6F_robust_gamma_0d5_theta_0d05199999999999999_2026-03-27_09h57m57s.log"
Set parameter MIPGap to value 0.005
Set parameter OptimalityTol to value 0.005
Gurobi Optimizer version 13.0.1 build v13.0.1rc0 (linux64 - "Linux Mint 22")

CPU model: 12th Gen Intel(R) Core(TM) i7-12700, instruction set [SSE2|AVX|AVX2]
Thread count: 20 physical cores, 20 logical processors, using up to 20 threads

Non-default parameters:
TimeLimit  3600
SoftMemLimit  12
MIPGap  0.005
OptimalityTol  0.005

Optimize a model with 120301 rows, 3061121 columns and 9258486 nonzeros (Max)
Model fingerprint: 0x4d7879b5
Model has 2970111 linear objective coefficients
Variable types: 31121 continuous, 3030000 integer (3030000 binary)
Coefficient statistics:
  Matrix range     [3e-05, 1e+05]
  Objective range  [1e+00, 3e+03]
  Bounds range     [1e+00, 1e+05]
  RHS range        [1e+00, 1e+05]

Presolve removed 78617 rows and 2622635 columns
Presolve time: 1.60s
Presolved: 41684 rows, 438486 columns, 1406966 nonzeros
Variable types: 10841 continuous, 427645 integer (427645 binary)
Found heuristic solution: objective -4.57980e+08
Performing another presolve...
Presolve added 0 rows and 10 columns
Presolve removed 20 rows and 0 columns
Presolve time: 2.05s
Deterministic concurrent LP optimizer: primal simplex, dual simplex, and barrier
Showing barrier log only...

Root barrier log...

Ordering time: 0.94s

Barrier statistics:
 AA' NZ     : 7.117e+05
 Factor NZ  : 5.951e+06 (roughly 240 MB of memory)
 Factor Ops : 1.649e+09 (less than 1 second per iteration)
 Threads    : 18

                  Objective                Residual
Iter       Primal          Dual         Primal    Dual     Compl     Time
   0  -3.86215284e+12  1.78709963e+09  7.42e+07 1.02e+03  2.60e+07     7s
   1  -4.93021454e+11  5.67398728e+09  9.49e+06 4.41e-11  3.42e+06     7s
   2  -1.28083963e+10  3.75995676e+09  2.46e+05 6.46e-11  9.25e+04     7s
   3  -3.07632456e+08  2.44324900e+09  6.27e+03 4.93e-11  4.97e+03     7s
   4   2.74844921e+08  7.46661816e+08  3.26e+02 4.64e-11  5.92e+02     7s
   5   2.97368287e+08  3.99229217e+08  8.89e+01 9.87e-11  1.30e+02     7s
   6   3.02888991e+08  3.54696552e+08  3.71e+01 6.16e-11  6.42e+01     7s
   7   3.04694167e+08  3.21373345e+08  2.05e+01 1.48e-10  2.16e+01     7s
   8   3.06096516e+08  3.14553967e+08  8.34e+00 1.06e-10  1.05e+01     7s
   9   3.06732568e+08  3.09691744e+08  2.54e+00 7.96e-11  3.48e+00     7s
  10   3.06859143e+08  3.08484908e+08  1.63e+00 8.87e-11  1.87e+00     7s
  11   3.07057093e+08  3.07866052e+08  5.33e-01 8.84e-11  9.08e-01     8s
  12   3.07148647e+08  3.07593834e+08  2.29e-01 1.02e-10  4.97e-01     8s
  13   3.07185228e+08  3.07460249e+08  1.36e-01 1.02e-10  3.07e-01     8s
  14   3.07224805e+08  3.07381988e+08  5.34e-02 1.17e-10  1.75e-01     8s
  15   3.07246592e+08  3.07327150e+08  1.68e-02 1.01e-10  8.98e-02     8s
  16   3.07253977e+08  3.07301966e+08  7.43e-03 1.05e-10  5.35e-02     8s
  17   3.07256342e+08  3.07286614e+08  4.82e-03 8.73e-11  3.37e-02     8s
  18   3.07257716e+08  3.07278656e+08  3.42e-03 9.89e-11  2.33e-02     8s
  19   3.07259438e+08  3.07274445e+08  1.82e-03 1.11e-10  1.67e-02     8s
  20   3.07259700e+08  3.07272140e+08  1.58e-03 1.25e-10  1.39e-02     8s
  21   3.07260437e+08  3.07271197e+08  9.80e-04 1.43e-10  1.20e-02     8s
  22   3.07260825e+08  3.07268667e+08  6.53e-04 1.26e-10  8.73e-03     9s
  23   3.07261025e+08  3.07266994e+08  4.97e-04 1.30e-10  6.65e-03     9s
  24   3.07261244e+08  3.07265457e+08  3.52e-04 1.31e-10  4.69e-03     9s
  25   3.07261445e+08  3.07264352e+08  2.14e-04 1.27e-10  3.24e-03     9s
  26   3.07261560e+08  3.07263426e+08  1.42e-04 1.11e-10  2.08e-03     9s
  27   3.07261646e+08  3.07263147e+08  9.64e-05 1.19e-10  1.67e-03     9s
  28   3.07261698e+08  3.07262812e+08  6.45e-05 1.24e-10  1.24e-03     9s
  29   3.07261730e+08  3.07262519e+08  4.71e-05 1.15e-10  8.79e-04    10s
  30   3.07261764e+08  3.07262340e+08  3.17e-05 1.11e-10  6.42e-04    10s
  31   3.07261804e+08  3.07262102e+08  1.25e-05 1.02e-10  3.32e-04    10s
  32   3.07261812e+08  3.07261973e+08  9.07e-06 9.19e-11  1.79e-04    10s
  33   3.07261826e+08  3.07261915e+08  3.19e-06 8.07e-11  9.94e-05    10s
  34   3.07261830e+08  3.07261896e+08  2.21e-06 9.21e-11  7.33e-05    10s
  35   3.07261832e+08  3.07261872e+08  1.58e-06 9.23e-11  4.52e-05    10s
  36   3.07261835e+08  3.07261852e+08  7.71e-07 9.16e-11  1.89e-05    10s
  37   3.07261836e+08  3.07261845e+08  4.67e-07 9.37e-11  1.02e-05    10s
  38   3.07261837e+08  3.07261843e+08  2.96e-07 8.28e-11  6.02e-06    10s
  39   3.07261838e+08  3.07261841e+08  1.23e-07 9.57e-11  3.06e-06    11s

Barrier solved model in 39 iterations and 10.53 seconds (14.17 work units)
Optimal objective 3.07261838e+08


Root crossover log...

   13996 DPushes remaining with DInf 0.0000000e+00                11s
       0 DPushes remaining with DInf 0.0000000e+00                11s

   10458 PPushes remaining with PInf 3.1392432e-01                11s
       0 PPushes remaining with PInf 0.0000000e+00                11s

  Push phase complete: Pinf 0.0000000e+00, Dinf 1.6222697e+05     11s


Root simplex log...

Iteration    Objective       Primal Inf.    Dual Inf.      Time
   23866    3.0726184e+08   0.000000e+00   1.622266e+05     11s
   26432    3.0726184e+08   0.000000e+00   0.000000e+00     12s
Crossover time: 1.40 seconds (1.60 work units)
Concurrent spin time: 0.97s (can be avoided by choosing Method=3)

Solved with barrier

Root relaxation: objective 3.072618e+08, 26432 iterations, 8.09 seconds (8.24 work units)
Total elapsed time = 12.92s (DegenMoves)

    Nodes    |    Current Node    |     Objective Bounds      |     Work
 Expl Unexpl |  Obj  Depth IntInf | Incumbent    BestBd   Gap | It/Node Time

     0     0 3.0726e+08    0 8350 -4.580e+08 3.0726e+08   167%     -   14s
H    0     0                    -7.82340e+07 3.0726e+08   493%     -   17s
H    0     0                    1.977100e+08 3.0726e+08  55.4%     -   18s
H    0     0                    2.351393e+08 3.0726e+08  30.7%     -   22s
H    0     0                    2.395867e+08 3.0726e+08  28.2%     -   24s
H    0     0                    2.407582e+08 3.0726e+08  27.6%     -   26s
     0     0 3.0726e+08    0 9292 2.4076e+08 3.0726e+08  27.6%     -  676s
H    0     0                    2.431243e+08 3.0726e+08  26.4%     -  678s
H    0     0                    2.524097e+08 3.0726e+08  21.7%     -  678s
H    0     0                    2.538199e+08 3.0726e+08  21.1%     -  680s
H    0     0                    2.544870e+08 3.0726e+08  20.7%     -  681s
H    0     0                    2.640786e+08 3.0726e+08  16.4%     -  699s
H    0     0                    2.648766e+08 3.0726e+08  16.0%     -  747s
H    0     0                    2.648799e+08 3.0726e+08  16.0%     -  754s
H    0     0                    2.654911e+08 3.0726e+08  15.7%     -  789s
H    0     0                    2.655024e+08 3.0726e+08  15.7%     -  865s
H    0     0                    2.659231e+08 3.0726e+08  15.5%     -  865s
H    0     0                    2.659411e+08 3.0726e+08  15.5%     -  891s
H    0     0                    2.659492e+08 3.0726e+08  15.5%     -  891s
H    0     0                    2.661023e+08 3.0726e+08  15.5%     -  891s
H    0     0                    2.661023e+08 3.0726e+08  15.5%     -  918s
H    0     0                    2.661023e+08 3.0726e+08  15.5%     - 1184s
H    0     0                    2.661035e+08 3.0726e+08  15.5%     - 1184s
H    0     0                    2.661092e+08 3.0726e+08  15.5%     - 1297s
H    0     0                    2.662502e+08 3.0726e+08  15.4%     - 1297s
H    0     0                    2.662599e+08 3.0726e+08  15.4%     - 1297s
     0     0 3.0726e+08    0 8973 2.6626e+08 3.0726e+08  15.4%     - 1509s
     0     0 3.0726e+08    0 9607 2.6626e+08 3.0726e+08  15.4%     - 2290s
H    0     0                    2.665175e+08 3.0726e+08  15.3%     - 2297s
H    0     0                    2.728386e+08 3.0726e+08  12.6%     - 2339s
H    0     0                    2.747396e+08 3.0726e+08  11.8%     - 2394s
H    0     0                    2.748394e+08 3.0726e+08  11.8%     - 2575s
H    0     0                    2.766666e+08 3.0726e+08  11.1%     - 2736s
H    0     0                    2.768712e+08 3.0726e+08  11.0%     - 2986s
H    0     0                    2.768882e+08 3.0726e+08  11.0%     - 3201s
H    0     0                    2.768892e+08 3.0726e+08  11.0%     - 3201s
H    0     0                    2.768899e+08 3.0726e+08  11.0%     - 3217s
H    0     0                    2.768903e+08 3.0726e+08  11.0%     - 3217s
H    0     0                    2.768904e+08 3.0726e+08  11.0%     - 3217s
     0     0 3.0726e+08    0 9633 2.7689e+08 3.0726e+08  11.0%     - 3355s
     0     0 3.0726e+08    0 9555 2.7689e+08 3.0726e+08  11.0%     - 3423s
     0     0 3.0726e+08    0 9486 2.7689e+08 3.0726e+08  11.0%     - 3451s
     0     0 3.0726e+08    0 9576 2.7689e+08 3.0726e+08  11.0%     - 3540s
     0     0 3.0726e+08    0 9576 2.7689e+08 3.0726e+08  11.0%     - 3543s
     0     0 3.0726e+08    0 9344 2.7689e+08 3.0726e+08  11.0%     - 3544s

Cutting planes:
  MIR: 12
  Flow cover: 51
  RLT: 2468
  Relax-and-lift: 72

Explored 1 nodes (851047 simplex iterations) in 3600.15 seconds (6033.53 work units)
Thread count was 20 (of 20 available processors)

Solution count 10: 2.7689e+08 2.7689e+08 2.7689e+08 ... 2.72839e+08

Time limit reached
Best objective 2.768903530973e+08, best bound 3.072611318580e+08, gap 10.9685%
